
Gurobi 8.1.1 (win64) logging started 11/23/19 16:02:50

Changed value of parameter LogFile to logs/full/feas/full-05-15-1.log
   Prev: gurobi.log  Default: 
Changed value of parameter LogToConsole to 0
   Prev: 1  Min: 0  Max: 1  Default: 1
Changed value of parameter TimeLimit to 3600.0
   Prev: 1e+100  Min: 0.0  Max: 1e+100  Default: 1e+100
Optimize a model with 802 rows, 369 columns and 2952 nonzeros
Variable types: 0 continuous, 369 integer (360 binary)
Coefficient statistics:
  Matrix range     [1e+00, 2e+02]
  Objective range  [1e+00, 1e+00]
  Bounds range     [1e+00, 1e+00]
  RHS range        [1e+00, 2e+02]
Presolve time: 0.01s
Presolved: 802 rows, 369 columns, 2952 nonzeros
Variable types: 0 continuous, 369 integer (360 binary)

Root relaxation: objective 3.600000e+01, 91 iterations, 0.00 seconds

    Nodes    |    Current Node    |     Objective Bounds      |     Work
 Expl Unexpl |  Obj  Depth IntInf | Incumbent    BestBd   Gap | It/Node Time

     0     0   36.00000    0   45          -   36.00000      -     -    0s
     0     0   36.00000    0   77          -   36.00000      -     -    0s
H    0     0                     104.0000000   36.00000  65.4%     -    0s
     0     0   37.01154    0   51  104.00000   37.01154  64.4%     -    0s
     0     0   37.37138    0   49  104.00000   37.37138  64.1%     -    0s
     0     0   37.37138    0   48  104.00000   37.37138  64.1%     -    0s
     0     0   39.91658    0   41  104.00000   39.91658  61.6%     -    0s
     0     0   46.84021    0   30  104.00000   46.84021  55.0%     -    0s
     0     0   47.26955    0   30  104.00000   47.26955  54.5%     -    0s
     0     0   47.45842    0   29  104.00000   47.45842  54.4%     -    0s
     0     0   48.57980    0   37  104.00000   48.57980  53.3%     -    0s
     0     0   49.06756    0   33  104.00000   49.06756  52.8%     -    0s
     0     0   49.27601    0   33  104.00000   49.27601  52.6%     -    0s
     0     0   49.39912    0   33  104.00000   49.39912  52.5%     -    0s
     0     0   49.54141    0   32  104.00000   49.54141  52.4%     -    0s
     0     0   49.67942    0   32  104.00000   49.67942  52.2%     -    0s
     0     0   49.78174    0   32  104.00000   49.78174  52.1%     -    0s
     0     0   49.81586    0   31  104.00000   49.81586  52.1%     -    0s
     0     0   50.75611    0   30  104.00000   50.75611  51.2%     -    0s
     0     0   50.84742    0   29  104.00000   50.84742  51.1%     -    0s
     0     0   50.91897    0   30  104.00000   50.91897  51.0%     -    0s
     0     0   51.00757    0   31  104.00000   51.00757  51.0%     -    0s
     0     0   51.06171    0   32  104.00000   51.06171  50.9%     -    0s
     0     0   51.09371    0   31  104.00000   51.09371  50.9%     -    0s
     0     0   56.49614    0   30  104.00000   56.49614  45.7%     -    0s
     0     0   56.52774    0   30  104.00000   56.52774  45.6%     -    0s
     0     0   56.52774    0   31  104.00000   56.52774  45.6%     -    0s
     0     0   59.00000    0   20  104.00000   59.00000  43.3%     -    0s
     0     0   59.00000    0   16  104.00000   59.00000  43.3%     -    0s
     0     0   64.00000    0   20  104.00000   64.00000  38.5%     -    0s
     0     0   64.00000    0   22  104.00000   64.00000  38.5%     -    0s
     0     0   64.39126    0   40  104.00000   64.39126  38.1%     -    0s
     0     0   64.39126    0   47  104.00000   64.39126  38.1%     -    0s
     0     0   64.87289    0   39  104.00000   64.87289  37.6%     -    0s
     0     0   64.87289    0   40  104.00000   64.87289  37.6%     -    0s
     0     0   65.00017    0   60  104.00000   65.00017  37.5%     -    0s
H    0     0                      97.0000000   65.00017  33.0%     -    0s
     0     0   65.01848    0   57   97.00000   65.01848  33.0%     -    0s
     0     0   65.01859    0   61   97.00000   65.01859  33.0%     -    0s
     0     0   65.12979    0   59   97.00000   65.12979  32.9%     -    0s
     0     0   65.16460    0   60   97.00000   65.16460  32.8%     -    0s
     0     0   65.16460    0   59   97.00000   65.16460  32.8%     -    0s
     0     0   65.23340    0   56   97.00000   65.23340  32.7%     -    0s
     0     0   65.35875    0   53   97.00000   65.35875  32.6%     -    0s
     0     0   65.44796    0   43   97.00000   65.44796  32.5%     -    0s
     0     0   65.44796    0   43   97.00000   65.44796  32.5%     -    0s
     0     0   65.64161    0   50   97.00000   65.64161  32.3%     -    0s
     0     0   65.64397    0   51   97.00000   65.64397  32.3%     -    0s
     0     0   65.67940    0   34   97.00000   65.67940  32.3%     -    0s
     0     0   65.67940    0   34   97.00000   65.67940  32.3%     -    0s
     0     0   65.67940    0   32   97.00000   65.67940  32.3%     -    0s
     0     0   65.67940    0   33   97.00000   65.67940  32.3%     -    0s
     0     0   65.81261    0   30   97.00000   65.81261  32.2%     -    0s
     0     0   65.81261    0   29   97.00000   65.81261  32.2%     -    0s
H    0     0                      90.0000000   65.81261  26.9%     -    0s
     0     0   65.81261    0   30   90.00000   65.81261  26.9%     -    0s
     0     0   65.86515    0   31   90.00000   65.86515  26.8%     -    0s
     0     0   65.91140    0   29   90.00000   65.91140  26.8%     -    0s
     0     0   65.91140    0   29   90.00000   65.91140  26.8%     -    0s
     0     0   65.91140    0   21   90.00000   65.91140  26.8%     -    0s
     0     0   65.91140    0   30   90.00000   65.91140  26.8%     -    0s
     0     0   65.91140    0   28   90.00000   65.91140  26.8%     -    0s
     0     0   65.91140    0   32   90.00000   65.91140  26.8%     -    0s
     0     0   66.11951    0   33   90.00000   66.11951  26.5%     -    0s
     0     0   66.15852    0   36   90.00000   66.15852  26.5%     -    0s
     0     0   66.76172    0   32   90.00000   66.76172  25.8%     -    0s
     0     0   66.89747    0   32   90.00000   66.89747  25.7%     -    0s
     0     0   66.89747    0   32   90.00000   66.89747  25.7%     -    0s
     0     0   67.24779    0   48   90.00000   67.24779  25.3%     -    0s
     0     0   67.60038    0   49   90.00000   67.60038  24.9%     -    0s
     0     0   67.67008    0   50   90.00000   67.67008  24.8%     -    0s
     0     0   67.67251    0   47   90.00000   67.67251  24.8%     -    0s
     0     0   67.96171    0   45   90.00000   67.96171  24.5%     -    0s
     0     0   67.99719    0   49   90.00000   67.99719  24.4%     -    0s
     0     0   68.00025    0   51   90.00000   68.00025  24.4%     -    0s
     0     0   68.01780    0   54   90.00000   68.01780  24.4%     -    0s
     0     0   68.03247    0   54   90.00000   68.03247  24.4%     -    0s
     0     0   68.03675    0   54   90.00000   68.03675  24.4%     -    0s
     0     0   68.11191    0   56   90.00000   68.11191  24.3%     -    0s
     0     0   68.33440    0   53   90.00000   68.33440  24.1%     -    0s
     0     0   68.34528    0   54   90.00000   68.34528  24.1%     -    0s
     0     0   68.34747    0   53   90.00000   68.34747  24.1%     -    0s
     0     0   68.34951    0   56   90.00000   68.34951  24.1%     -    0s
     0     0   68.38574    0   52   90.00000   68.38574  24.0%     -    0s
     0     0   68.44135    0   54   90.00000   68.44135  24.0%     -    0s
     0     0   68.44390    0   54   90.00000   68.44390  24.0%     -    0s
     0     0   68.65083    0   49   90.00000   68.65083  23.7%     -    0s
     0     0   68.99796    0   48   90.00000   68.99796  23.3%     -    0s
     0     0   68.99960    0   50   90.00000   68.99960  23.3%     -    0s
     0     0   69.06480    0   52   90.00000   69.06480  23.3%     -    0s
     0     0   69.11053    0   56   90.00000   69.11053  23.2%     -    0s
     0     0   69.13195    0   54   90.00000   69.13195  23.2%     -    0s
     0     0   69.13508    0   56   90.00000   69.13508  23.2%     -    0s
     0     0   69.31435    0   53   90.00000   69.31435  23.0%     -    0s
     0     0   69.51170    0   55   90.00000   69.51170  22.8%     -    0s
     0     0   69.54267    0   61   90.00000   69.54267  22.7%     -    0s
     0     0   69.55268    0   64   90.00000   69.55268  22.7%     -    0s
     0     0   69.55712    0   55   90.00000   69.55712  22.7%     -    0s
     0     0   69.57593    0   63   90.00000   69.57593  22.7%     -    0s
     0     0   69.64324    0   62   90.00000   69.64324  22.6%     -    0s
     0     0   69.64394    0   67   90.00000   69.64394  22.6%     -    0s
     0     0   69.65233    0   69   90.00000   69.65233  22.6%     -    0s
     0     0   69.65740    0   69   90.00000   69.65740  22.6%     -    0s
     0     0   69.71233    0   71   90.00000   69.71233  22.5%     -    0s
     0     0   69.71233    0   62   90.00000   69.71233  22.5%     -    1s
     0     2   69.71233    0   62   90.00000   69.71233  22.5%     -    1s
*  214    46              28      88.0000000   78.00000  11.4%  12.8    1s
*  274    41              20      86.0000000   79.00000  8.14%  11.8    1s

Cutting planes:
  Gomory: 1
  Cover: 3
  Implied bound: 30
  MIR: 47
  StrongCG: 2

Explored 357 nodes (8340 simplex iterations) in 1.20 seconds
Thread count was 4 (of 4 available processors)

Solution count 5: 86 88 90 ... 104

Optimal solution found (tolerance 1.00e-04)
Best objective 8.600000000000e+01, best bound 8.600000000000e+01, gap 0.0000%

Gurobi 8.1.1 (win64) logging started 11/23/19 16:02:52

Changed value of parameter LogFile to logs/full/feas/full-05-15-1.log
   Prev: gurobi.log  Default: 
Changed value of parameter LogToConsole to 0
   Prev: 1  Min: 0  Max: 1  Default: 1
Changed value of parameter TimeLimit to 3600.0
   Prev: 1e+100  Min: 0.0  Max: 1e+100  Default: 1e+100
Optimize a model with 472 rows, 217 columns and 1722 nonzeros
Variable types: 0 continuous, 217 integer (210 binary)
Coefficient statistics:
  Matrix range     [1e+00, 2e+02]
  Objective range  [1e+00, 1e+00]
  Bounds range     [1e+00, 1e+00]
  RHS range        [1e+00, 2e+02]
Presolve time: 0.01s
Presolved: 472 rows, 217 columns, 1722 nonzeros
Variable types: 0 continuous, 217 integer (210 binary)

Root relaxation: objective 2.100000e+01, 99 iterations, 0.00 seconds

    Nodes    |    Current Node    |     Objective Bounds      |     Work
 Expl Unexpl |  Obj  Depth IntInf | Incumbent    BestBd   Gap | It/Node Time

     0     0   21.00000    0   72          -   21.00000      -     -    0s
H    0     0                      85.0000000   21.00000  75.3%     -    0s
     0     0   24.41826    0   49   85.00000   24.41826  71.3%     -    0s
     0     0   30.36985    0   41   85.00000   30.36985  64.3%     -    0s
     0     0   40.51852    0   31   85.00000   40.51852  52.3%     -    0s
     0     0   41.40580    0   35   85.00000   41.40580  51.3%     -    0s
     0     0   41.44882    0   34   85.00000   41.44882  51.2%     -    0s
     0     0   41.53073    0   48   85.00000   41.53073  51.1%     -    0s
     0     0   41.53708    0   49   85.00000   41.53708  51.1%     -    0s
     0     0   45.42374    0   41   85.00000   45.42374  46.6%     -    0s
H    0     0                      84.0000000   45.42374  45.9%     -    0s
     0     0   56.95041    0   27   84.00000   56.95041  32.2%     -    0s
     0     0   56.95041    0   25   84.00000   56.95041  32.2%     -    0s
     0     0   56.95041    0   28   84.00000   56.95041  32.2%     -    0s
     0     0   56.95041    0   29   84.00000   56.95041  32.2%     -    0s
     0     0   56.95041    0   26   84.00000   56.95041  32.2%     -    0s
     0     0   56.95041    0   29   84.00000   56.95041  32.2%     -    0s
     0     0   56.95041    0   27   84.00000   56.95041  32.2%     -    0s
     0     0   56.96053    0   19   84.00000   56.96053  32.2%     -    0s
     0     0   56.96053    0   20   84.00000   56.96053  32.2%     -    0s
     0     0   56.96053    0   19   84.00000   56.96053  32.2%     -    0s
H    0     0                      83.0000000   56.96053  31.4%     -    0s
     0     1   56.96053    0   18   83.00000   56.96053  31.4%     -    0s
*  241    64              32      79.0000000   67.00000  15.2%  10.5    0s

Cutting planes:
  Gomory: 13
  Implied bound: 20
  MIR: 24
  StrongCG: 7

Explored 531 nodes (7392 simplex iterations) in 0.39 seconds
Thread count was 4 (of 4 available processors)

Solution count 4: 79 83 84 85 

Optimal solution found (tolerance 1.00e-04)
Best objective 7.900000000000e+01, best bound 7.900000000000e+01, gap 0.0000%

Gurobi 8.1.1 (win64) logging started 11/23/19 16:02:52

Changed value of parameter LogFile to logs/full/feas/full-05-15-1.log
   Prev: gurobi.log  Default: 
Changed value of parameter LogToConsole to 0
   Prev: 1  Min: 0  Max: 1  Default: 1
Changed value of parameter TimeLimit to 3600.0
   Prev: 1e+100  Min: 0.0  Max: 1e+100  Default: 1e+100
Optimize a model with 340 rows, 156 columns and 1230 nonzeros
Variable types: 0 continuous, 156 integer (150 binary)
Coefficient statistics:
  Matrix range     [1e+00, 2e+02]
  Objective range  [1e+00, 1e+00]
  Bounds range     [1e+00, 1e+00]
  RHS range        [1e+00, 2e+02]
Presolve time: 0.00s
Presolved: 340 rows, 156 columns, 1230 nonzeros
Variable types: 0 continuous, 156 integer (150 binary)

Root relaxation: objective 1.520000e+01, 110 iterations, 0.00 seconds

    Nodes    |    Current Node    |     Objective Bounds      |     Work
 Expl Unexpl |  Obj  Depth IntInf | Incumbent    BestBd   Gap | It/Node Time

     0     0   15.20000    0   84          -   15.20000      -     -    0s
     0     0   22.15332    0   62          -   22.15332      -     -    0s
     0     0   24.70068    0   66          -   24.70068      -     -    0s
     0     0   25.20481    0   57          -   25.20481      -     -    0s
     0     0   25.20481    0   59          -   25.20481      -     -    0s
     0     0   25.45475    0   79          -   25.45475      -     -    0s
     0     0   25.45698    0   89          -   25.45698      -     -    0s
     0     0   26.23454    0   81          -   26.23454      -     -    0s
     0     0   26.38888    0   81          -   26.38888      -     -    0s
     0     0   26.41748    0   76          -   26.41748      -     -    0s
     0     0   26.42507    0   78          -   26.42507      -     -    0s
     0     0   27.58232    0   82          -   27.58232      -     -    0s
     0     0   27.60523    0   82          -   27.60523      -     -    0s
     0     0   27.62371    0   74          -   27.62371      -     -    0s
     0     0   27.63170    0   75          -   27.63170      -     -    0s
     0     0   27.96291    0   75          -   27.96291      -     -    0s
     0     0   28.07551    0   78          -   28.07551      -     -    0s
     0     0   28.11508    0   78          -   28.11508      -     -    0s
     0     0   28.12193    0   75          -   28.12193      -     -    0s
     0     0   29.88298    0   91          -   29.88298      -     -    0s
     0     0   30.05263    0   84          -   30.05263      -     -    0s
     0     0   30.20710    0   92          -   30.20710      -     -    0s
     0     0   30.23898    0   89          -   30.23898      -     -    0s
     0     0   30.25429    0   93          -   30.25429      -     -    0s
     0     0   30.25842    0   93          -   30.25842      -     -    0s
     0     0   30.52409    0   78          -   30.52409      -     -    0s
     0     0   30.74113    0   78          -   30.74113      -     -    0s
     0     0   30.79991    0   75          -   30.79991      -     -    0s
     0     0   30.80670    0   92          -   30.80670      -     -    0s
     0     0   30.92785    0   95          -   30.92785      -     -    0s
     0     0   30.95978    0   97          -   30.95978      -     -    0s
     0     0   30.95978    0   99          -   30.95978      -     -    0s
     0     0   31.03709    0   97          -   31.03709      -     -    0s
     0     0   31.03709    0   88          -   31.03709      -     -    0s
H    0     0                      99.0000000   31.03709  68.6%     -    0s
H    0     0                      81.0000000   31.03709  61.7%     -    0s
     0     2   31.03709    0   88   81.00000   31.03709  61.7%     -    0s
* 1631   247              22      77.0000000   62.00000  19.5%  12.0    0s

Cutting planes:
  Gomory: 19
  MIR: 145
  StrongCG: 9
  Inf proof: 3

Explored 2230 nodes (25896 simplex iterations) in 0.76 seconds
Thread count was 4 (of 4 available processors)

Solution count 3: 77 81 99 

Optimal solution found (tolerance 1.00e-04)
Best objective 7.700000000000e+01, best bound 7.700000000000e+01, gap 0.0000%
